NAME CFLP
ROWS
 N  OBJ
 E  demand_1
 E  demand_2
 E  demand_3
 E  demand_4
 E  demand_5
 E  demand_6
 E  demand_7
 E  demand_8
 E  demand_9
 E  demand_10
 E  demand_11
 E  demand_12
 E  demand_13
 E  demand_14
 E  demand_15
 E  demand_16
 E  demand_17
 E  demand_18
 E  demand_19
 E  demand_20
 E  demand_21
 E  demand_22
 E  demand_23
 E  demand_24
 E  demand_25
 E  demand_26
 E  demand_27
 E  demand_28
 E  demand_29
 E  demand_30
 L  c_disjunction_1_diajunct_1
 L  c_disjunction_1_disjunct_2
 E  R32     
 L  c_disjunction_2_diajunct_1
 L  c_disjunction_2_disjunct_2
 E  R35     
 L  c_disjunction_3_diajunct_1
 L  c_disjunction_3_disjunct_2
 E  R38     
 L  c_disjunction_4_diajunct_1
 L  c_disjunction_4_disjunct_2
 E  R41     
 L  c_disjunction_5_diajunct_1
 L  c_disjunction_5_disjunct_2
 E  R44     
 L  c_disjunction_6_diajunct_1
 L  c_disjunction_6_disjunct_2
 E  R47     
 L  c_disjunction_7_diajunct_1
 L  c_disjunction_7_disjunct_2
 E  R50     
 L  c_disjunction_8_diajunct_1
 L  c_disjunction_8_disjunct_2
 E  R53     
 L  c_disjunction_9_diajunct_1
 L  c_disjunction_9_disjunct_2
 E  R56     
 L  c_disjunction_10_diajunct_1
 L  c_disjunction_10_disjunct_2
 E  R59     
 L  c_disjunction_11_diajunct_1
 L  c_disjunction_11_disjunct_2
 E  R62     
 L  c_disjunction_12_diajunct_1
 L  c_disjunction_12_disjunct_2
 E  R65     
 L  c_disjunction_13_diajunct_1
 L  c_disjunction_13_disjunct_2
 E  R68     
 L  c_disjunction_14_diajunct_1
 L  c_disjunction_14_disjunct_2
 E  R71     
 L  c_disjunction_15_diajunct_1
 L  c_disjunction_15_disjunct_2
 E  R74     
 L  c_disjunction_16_diajunct_1
 L  c_disjunction_16_disjunct_2
 E  R77     
 L  c_disjunction_17_diajunct_1
 L  c_disjunction_17_disjunct_2
 E  R80     
 L  c_disjunction_18_diajunct_1
 L  c_disjunction_18_disjunct_2
 E  R83     
 L  c_disjunction_19_diajunct_1
 L  c_disjunction_19_disjunct_2
 E  R86     
 L  c_disjunction_20_diajunct_1
 L  c_disjunction_20_disjunct_2
 E  R89     
 L  c_disjunction_21_diajunct_1
 L  c_disjunction_21_disjunct_2
 E  R92     
 L  c_disjunction_22_diajunct_1
 L  c_disjunction_22_disjunct_2
 E  R95     
 L  c_disjunction_23_diajunct_1
 L  c_disjunction_23_disjunct_2
 E  R98     
 L  c_disjunction_24_diajunct_1
 L  c_disjunction_24_disjunct_2
 E  R101    
 L  c_disjunction_25_diajunct_1
 L  c_disjunction_25_disjunct_2
 E  R104    
 L  c_disjunction_26_diajunct_1
 L  c_disjunction_26_disjunct_2
 E  R107    
 L  c_disjunction_27_diajunct_1
 L  c_disjunction_27_disjunct_2
 E  R110    
 L  c_disjunction_28_diajunct_1
 L  c_disjunction_28_disjunct_2
 E  R113    
 L  c_disjunction_29_diajunct_1
 L  c_disjunction_29_disjunct_2
 E  R116    
 L  c_disjunction_30_diajunct_1
 L  c_disjunction_30_disjunct_2
 E  R119    
COLUMNS
    MARKER    'MARKER'                 'INTORG'
    ind_disjunction_1_disjunct_1  OBJ       1238
    ind_disjunction_1_disjunct_1  c_disjunction_1_diajunct_1  -129
    ind_disjunction_1_disjunct_1  R32       1
    ind_disjunction_2_disjunct_1  OBJ       1238
    ind_disjunction_2_disjunct_1  c_disjunction_2_diajunct_1  -129
    ind_disjunction_2_disjunct_1  R35       1
    ind_disjunction_3_disjunct_1  OBJ       1238
    ind_disjunction_3_disjunct_1  c_disjunction_3_diajunct_1  -129
    ind_disjunction_3_disjunct_1  R38       1
    ind_disjunction_4_disjunct_1  OBJ       1238
    ind_disjunction_4_disjunct_1  c_disjunction_4_diajunct_1  -129
    ind_disjunction_4_disjunct_1  R41       1
    ind_disjunction_5_disjunct_1  OBJ       1238
    ind_disjunction_5_disjunct_1  c_disjunction_5_diajunct_1  -129
    ind_disjunction_5_disjunct_1  R44       1
    ind_disjunction_6_disjunct_1  OBJ       1238
    ind_disjunction_6_disjunct_1  c_disjunction_6_diajunct_1  -129
    ind_disjunction_6_disjunct_1  R47       1
    ind_disjunction_7_disjunct_1  OBJ       1238
    ind_disjunction_7_disjunct_1  c_disjunction_7_diajunct_1  -129
    ind_disjunction_7_disjunct_1  R50       1
    ind_disjunction_8_disjunct_1  OBJ       1238
    ind_disjunction_8_disjunct_1  c_disjunction_8_diajunct_1  -129
    ind_disjunction_8_disjunct_1  R53       1
    ind_disjunction_9_disjunct_1  OBJ       1238
    ind_disjunction_9_disjunct_1  c_disjunction_9_diajunct_1  -129
    ind_disjunction_9_disjunct_1  R56       1
    ind_disjunction_10_disjunct_1  OBJ       1238
    ind_disjunction_10_disjunct_1  c_disjunction_10_diajunct_1  -129
    ind_disjunction_10_disjunct_1  R59       1
    ind_disjunction_11_disjunct_1  OBJ       1238
    ind_disjunction_11_disjunct_1  c_disjunction_11_diajunct_1  -129
    ind_disjunction_11_disjunct_1  R62       1
    ind_disjunction_12_disjunct_1  OBJ       1238
    ind_disjunction_12_disjunct_1  c_disjunction_12_diajunct_1  -129
    ind_disjunction_12_disjunct_1  R65       1
    ind_disjunction_13_disjunct_1  OBJ       1238
    ind_disjunction_13_disjunct_1  c_disjunction_13_diajunct_1  -129
    ind_disjunction_13_disjunct_1  R68       1
    ind_disjunction_14_disjunct_1  OBJ       1238
    ind_disjunction_14_disjunct_1  c_disjunction_14_diajunct_1  -129
    ind_disjunction_14_disjunct_1  R71       1
    ind_disjunction_15_disjunct_1  OBJ       1238
    ind_disjunction_15_disjunct_1  c_disjunction_15_diajunct_1  -129
    ind_disjunction_15_disjunct_1  R74       1
    ind_disjunction_16_disjunct_1  OBJ       1238
    ind_disjunction_16_disjunct_1  c_disjunction_16_diajunct_1  -129
    ind_disjunction_16_disjunct_1  R77       1
    ind_disjunction_17_disjunct_1  OBJ       1238
    ind_disjunction_17_disjunct_1  c_disjunction_17_diajunct_1  -129
    ind_disjunction_17_disjunct_1  R80       1
    ind_disjunction_18_disjunct_1  OBJ       1238
    ind_disjunction_18_disjunct_1  c_disjunction_18_diajunct_1  -129
    ind_disjunction_18_disjunct_1  R83       1
    ind_disjunction_19_disjunct_1  OBJ       1238
    ind_disjunction_19_disjunct_1  c_disjunction_19_diajunct_1  -129
    ind_disjunction_19_disjunct_1  R86       1
    ind_disjunction_20_disjunct_1  OBJ       1238
    ind_disjunction_20_disjunct_1  c_disjunction_20_diajunct_1  -129
    ind_disjunction_20_disjunct_1  R89       1
    ind_disjunction_21_disjunct_1  OBJ       1238
    ind_disjunction_21_disjunct_1  c_disjunction_21_diajunct_1  -129
    ind_disjunction_21_disjunct_1  R92       1
    ind_disjunction_22_disjunct_1  OBJ       1238
    ind_disjunction_22_disjunct_1  c_disjunction_22_diajunct_1  -129
    ind_disjunction_22_disjunct_1  R95       1
    ind_disjunction_23_disjunct_1  OBJ       1238
    ind_disjunction_23_disjunct_1  c_disjunction_23_diajunct_1  -129
    ind_disjunction_23_disjunct_1  R98       1
    ind_disjunction_24_disjunct_1  OBJ       1238
    ind_disjunction_24_disjunct_1  c_disjunction_24_diajunct_1  -129
    ind_disjunction_24_disjunct_1  R101      1
    ind_disjunction_25_disjunct_1  OBJ       1238
    ind_disjunction_25_disjunct_1  c_disjunction_25_diajunct_1  -129
    ind_disjunction_25_disjunct_1  R104      1
    ind_disjunction_26_disjunct_1  OBJ       1238
    ind_disjunction_26_disjunct_1  c_disjunction_26_diajunct_1  -129
    ind_disjunction_26_disjunct_1  R107      1
    ind_disjunction_27_disjunct_1  OBJ       1238
    ind_disjunction_27_disjunct_1  c_disjunction_27_diajunct_1  -129
    ind_disjunction_27_disjunct_1  R110      1
    ind_disjunction_28_disjunct_1  OBJ       1238
    ind_disjunction_28_disjunct_1  c_disjunction_28_diajunct_1  -129
    ind_disjunction_28_disjunct_1  R113      1
    ind_disjunction_29_disjunct_1  OBJ       1238
    ind_disjunction_29_disjunct_1  c_disjunction_29_diajunct_1  -129
    ind_disjunction_29_disjunct_1  R116      1
    ind_disjunction_30_disjunct_1  OBJ       1238
    ind_disjunction_30_disjunct_1  c_disjunction_30_diajunct_1  -129
    ind_disjunction_30_disjunct_1  R119      1
    ind_disjunction_1_disjunct_2  c_disjunction_1_disjunct_2  2
    ind_disjunction_1_disjunct_2  R32       1
    ind_disjunction_2_disjunct_2  c_disjunction_2_disjunct_2  4
    ind_disjunction_2_disjunct_2  R35       1
    ind_disjunction_3_disjunct_2  c_disjunction_3_disjunct_2  4
    ind_disjunction_3_disjunct_2  R38       1
    ind_disjunction_4_disjunct_2  c_disjunction_4_disjunct_2  2
    ind_disjunction_4_disjunct_2  R41       1
    ind_disjunction_5_disjunct_2  c_disjunction_5_disjunct_2  4
    ind_disjunction_5_disjunct_2  R44       1
    ind_disjunction_6_disjunct_2  c_disjunction_6_disjunct_2  3
    ind_disjunction_6_disjunct_2  R47       1
    ind_disjunction_7_disjunct_2  c_disjunction_7_disjunct_2  4
    ind_disjunction_7_disjunct_2  R50       1
    ind_disjunction_8_disjunct_2  c_disjunction_8_disjunct_2  2
    ind_disjunction_8_disjunct_2  R53       1
    ind_disjunction_9_disjunct_2  c_disjunction_9_disjunct_2  2
    ind_disjunction_9_disjunct_2  R56       1
    ind_disjunction_10_disjunct_2  c_disjunction_10_disjunct_2  3
    ind_disjunction_10_disjunct_2  R59       1
    ind_disjunction_11_disjunct_2  c_disjunction_11_disjunct_2  4
    ind_disjunction_11_disjunct_2  R62       1
    ind_disjunction_12_disjunct_2  c_disjunction_12_disjunct_2  1
    ind_disjunction_12_disjunct_2  R65       1
    ind_disjunction_13_disjunct_2  c_disjunction_13_disjunct_2  2
    ind_disjunction_13_disjunct_2  R68       1
    ind_disjunction_14_disjunct_2  c_disjunction_14_disjunct_2  2
    ind_disjunction_14_disjunct_2  R71       1
    ind_disjunction_15_disjunct_2  c_disjunction_15_disjunct_2  5
    ind_disjunction_15_disjunct_2  R74       1
    ind_disjunction_16_disjunct_2  c_disjunction_16_disjunct_2  4
    ind_disjunction_16_disjunct_2  R77       1
    ind_disjunction_17_disjunct_2  c_disjunction_17_disjunct_2  1
    ind_disjunction_17_disjunct_2  R80       1
    ind_disjunction_18_disjunct_2  c_disjunction_18_disjunct_2  3
    ind_disjunction_18_disjunct_2  R83       1
    ind_disjunction_19_disjunct_2  c_disjunction_19_disjunct_2  2
    ind_disjunction_19_disjunct_2  R86       1
    ind_disjunction_20_disjunct_2  c_disjunction_20_disjunct_2  5
    ind_disjunction_20_disjunct_2  R89       1
    ind_disjunction_21_disjunct_2  c_disjunction_21_disjunct_2  2
    ind_disjunction_21_disjunct_2  R92       1
    ind_disjunction_22_disjunct_2  c_disjunction_22_disjunct_2  5
    ind_disjunction_22_disjunct_2  R95       1
    ind_disjunction_23_disjunct_2  c_disjunction_23_disjunct_2  2
    ind_disjunction_23_disjunct_2  R98       1
    ind_disjunction_24_disjunct_2  c_disjunction_24_disjunct_2  2
    ind_disjunction_24_disjunct_2  R101      1
    ind_disjunction_25_disjunct_2  c_disjunction_25_disjunct_2  4
    ind_disjunction_25_disjunct_2  R104      1
    ind_disjunction_26_disjunct_2  c_disjunction_26_disjunct_2  2
    ind_disjunction_26_disjunct_2  R107      1
    ind_disjunction_27_disjunct_2  c_disjunction_27_disjunct_2  3
    ind_disjunction_27_disjunct_2  R110      1
    ind_disjunction_28_disjunct_2  c_disjunction_28_disjunct_2  2
    ind_disjunction_28_disjunct_2  R113      1
    ind_disjunction_29_disjunct_2  c_disjunction_29_disjunct_2  5
    ind_disjunction_29_disjunct_2  R116      1
    ind_disjunction_30_disjunct_2  c_disjunction_30_disjunct_2  4
    ind_disjunction_30_disjunct_2  R119      1
    x[1,1]    demand_1  1
    x[1,1]    c_disjunction_1_diajunct_1  16
    x[1,1]    c_disjunction_1_disjunct_2  1
    x[29,1]   OBJ       1.3
    x[29,1]   demand_1  1
    x[29,1]   c_disjunction_29_diajunct_1  16
    x[29,1]   c_disjunction_29_disjunct_2  1
    x[5,1]    OBJ       26.5
    x[5,1]    demand_1  1
    x[5,1]    c_disjunction_5_diajunct_1  16
    x[5,1]    c_disjunction_5_disjunct_2  1
    x[2,2]    demand_2  1
    x[2,2]    c_disjunction_2_diajunct_1  35
    x[2,2]    c_disjunction_2_disjunct_2  1
    x[20,2]   OBJ       25.7
    x[20,2]   demand_2  1
    x[20,2]   c_disjunction_20_diajunct_1  35
    x[20,2]   c_disjunction_20_disjunct_2  1
    x[13,2]   OBJ       43.4
    x[13,2]   demand_2  1
    x[13,2]   c_disjunction_13_diajunct_1  35
    x[13,2]   c_disjunction_13_disjunct_2  1
    x[3,3]    demand_3  1
    x[3,3]    c_disjunction_3_diajunct_1  23
    x[3,3]    c_disjunction_3_disjunct_2  1
    x[10,3]   OBJ       13.6
    x[10,3]   demand_3  1
    x[10,3]   c_disjunction_10_diajunct_1  23
    x[10,3]   c_disjunction_10_disjunct_2  1
    x[7,3]    OBJ       16.5
    x[7,3]    demand_3  1
    x[7,3]    c_disjunction_7_diajunct_1  23
    x[7,3]    c_disjunction_7_disjunct_2  1
    x[4,4]    demand_4  1
    x[4,4]    c_disjunction_4_diajunct_1  33
    x[4,4]    c_disjunction_4_disjunct_2  1
    x[19,4]   OBJ       64.9
    x[19,4]   demand_4  1
    x[19,4]   c_disjunction_19_diajunct_1  33
    x[19,4]   c_disjunction_19_disjunct_2  1
    x[16,4]   OBJ       79.8
    x[16,4]   demand_4  1
    x[16,4]   c_disjunction_16_diajunct_1  33
    x[16,4]   c_disjunction_16_disjunct_2  1
    x[5,5]    demand_5  1
    x[5,5]    c_disjunction_5_diajunct_1  12
    x[5,5]    c_disjunction_5_disjunct_2  1
    x[28,5]   OBJ       13.6
    x[28,5]   demand_5  1
    x[28,5]   c_disjunction_28_diajunct_1  12
    x[28,5]   c_disjunction_28_disjunct_2  1
    x[29,5]   OBJ       18.9
    x[29,5]   demand_5  1
    x[29,5]   c_disjunction_29_diajunct_1  12
    x[29,5]   c_disjunction_29_disjunct_2  1
    x[6,6]    demand_6  1
    x[6,6]    c_disjunction_6_diajunct_1  6
    x[6,6]    c_disjunction_6_disjunct_2  1
    x[22,6]   OBJ       6.8
    x[22,6]   demand_6  1
    x[22,6]   c_disjunction_22_diajunct_1  6
    x[22,6]   c_disjunction_22_disjunct_2  1
    x[15,6]   OBJ       7.3
    x[15,6]   demand_6  1
    x[15,6]   c_disjunction_15_diajunct_1  6
    x[15,6]   c_disjunction_15_disjunct_2  1
    x[7,7]    demand_7  1
    x[7,7]    c_disjunction_7_diajunct_1  22
    x[7,7]    c_disjunction_7_disjunct_2  1
    x[10,7]   OBJ       13.1
    x[10,7]   demand_7  1
    x[10,7]   c_disjunction_10_diajunct_1  22
    x[10,7]   c_disjunction_10_disjunct_2  1
    x[3,7]    OBJ       15.7
    x[3,7]    demand_7  1
    x[3,7]    c_disjunction_3_diajunct_1  22
    x[3,7]    c_disjunction_3_disjunct_2  1
    x[8,8]    demand_8  1
    x[8,8]    c_disjunction_8_diajunct_1  5
    x[8,8]    c_disjunction_8_disjunct_2  1
    x[22,8]   OBJ       3.7
    x[22,8]   demand_8  1
    x[22,8]   c_disjunction_22_diajunct_1  5
    x[22,8]   c_disjunction_22_disjunct_2  1
    x[15,8]   OBJ       5.1
    x[15,8]   demand_8  1
    x[15,8]   c_disjunction_15_diajunct_1  5
    x[15,8]   c_disjunction_15_disjunct_2  1
    x[9,9]    demand_9  1
    x[9,9]    c_disjunction_9_diajunct_1  30
    x[9,9]    c_disjunction_9_disjunct_2  1
    x[2,9]    OBJ       41.6
    x[2,9]    demand_9  1
    x[2,9]    c_disjunction_2_diajunct_1  30
    x[2,9]    c_disjunction_2_disjunct_2  1
    x[20,9]   OBJ       50.3
    x[20,9]   demand_9  1
    x[20,9]   c_disjunction_20_diajunct_1  30
    x[20,9]   c_disjunction_20_disjunct_2  1
    x[10,10]  demand_10  1
    x[10,10]  c_disjunction_10_diajunct_1  21
    x[10,10]  c_disjunction_10_disjunct_2  1
    x[3,10]   OBJ       12.4
    x[3,10]   demand_10  1
    x[3,10]   c_disjunction_3_diajunct_1  21
    x[3,10]   c_disjunction_3_disjunct_2  1
    x[7,10]   OBJ       12.5
    x[7,10]   demand_10  1
    x[7,10]   c_disjunction_7_diajunct_1  21
    x[7,10]   c_disjunction_7_disjunct_2  1
    x[11,11]  demand_11  1
    x[11,11]  c_disjunction_11_diajunct_1  8
    x[11,11]  c_disjunction_11_disjunct_2  1
    x[18,11]  OBJ       12
    x[18,11]  demand_11  1
    x[18,11]  c_disjunction_18_diajunct_1  8
    x[18,11]  c_disjunction_18_disjunct_2  1
    x[20,11]  OBJ       12.6
    x[20,11]  demand_11  1
    x[20,11]  c_disjunction_20_diajunct_1  8
    x[20,11]  c_disjunction_20_disjunct_2  1
    x[12,12]  demand_12  1
    x[12,12]  c_disjunction_12_diajunct_1  5
    x[12,12]  c_disjunction_12_disjunct_2  1
    x[3,12]   OBJ       10.1
    x[3,12]   demand_12  1
    x[3,12]   c_disjunction_3_diajunct_1  5
    x[3,12]   c_disjunction_3_disjunct_2  1
    x[7,12]   OBJ       12.8
    x[7,12]   demand_12  1
    x[7,12]   c_disjunction_7_diajunct_1  5
    x[7,12]   c_disjunction_7_disjunct_2  1
    x[13,13]  demand_13  1
    x[13,13]  c_disjunction_13_diajunct_1  14
    x[13,13]  c_disjunction_13_disjunct_2  1
    x[2,13]   OBJ       17.4
    x[2,13]   demand_13  1
    x[2,13]   c_disjunction_2_diajunct_1  14
    x[2,13]   c_disjunction_2_disjunct_2  1
    x[9,13]   OBJ       24.4
    x[9,13]   demand_13  1
    x[9,13]   c_disjunction_9_diajunct_1  14
    x[9,13]   c_disjunction_9_disjunct_2  1
    x[14,14]  demand_14  1
    x[14,14]  c_disjunction_14_diajunct_1  28
    x[14,14]  c_disjunction_14_disjunct_2  1
    x[15,14]  OBJ       18.4
    x[15,14]  demand_14  1
    x[15,14]  c_disjunction_15_diajunct_1  28
    x[15,14]  c_disjunction_15_disjunct_2  1
    x[22,14]  OBJ       27.1
    x[22,14]  demand_14  1
    x[22,14]  c_disjunction_22_diajunct_1  28
    x[22,14]  c_disjunction_22_disjunct_2  1
    x[15,15]  demand_15  1
    x[15,15]  c_disjunction_15_diajunct_1  18
    x[15,15]  c_disjunction_15_disjunct_2  1
    x[22,15]  OBJ       5.6
    x[22,15]  demand_15  1
    x[22,15]  c_disjunction_22_diajunct_1  18
    x[22,15]  c_disjunction_22_disjunct_2  1
    x[14,15]  OBJ       11.8
    x[14,15]  demand_15  1
    x[14,15]  c_disjunction_14_diajunct_1  18
    x[14,15]  c_disjunction_14_disjunct_2  1
    x[16,16]  demand_16  1
    x[16,16]  c_disjunction_16_diajunct_1  17
    x[16,16]  c_disjunction_16_disjunct_2  1
    x[25,16]  OBJ       15.8
    x[25,16]  demand_16  1
    x[25,16]  c_disjunction_25_diajunct_1  17
    x[25,16]  c_disjunction_25_disjunct_2  1
    x[30,16]  OBJ       23.8
    x[30,16]  demand_16  1
    x[30,16]  c_disjunction_30_diajunct_1  17
    x[30,16]  c_disjunction_30_disjunct_2  1
    x[17,17]  demand_17  1
    x[17,17]  c_disjunction_17_diajunct_1  30
    x[17,17]  c_disjunction_17_disjunct_2  1
    x[25,17]  OBJ       33.9
    x[25,17]  demand_17  1
    x[25,17]  c_disjunction_25_diajunct_1  30
    x[25,17]  c_disjunction_25_disjunct_2  1
    x[30,17]  OBJ       43.7
    x[30,17]  demand_17  1
    x[30,17]  c_disjunction_30_diajunct_1  30
    x[30,17]  c_disjunction_30_disjunct_2  1
    x[18,18]  demand_18  1
    x[18,18]  c_disjunction_18_diajunct_1  25
    x[18,18]  c_disjunction_18_disjunct_2  1
    x[26,18]  OBJ       36.3
    x[26,18]  demand_18  1
    x[26,18]  c_disjunction_26_diajunct_1  25
    x[26,18]  c_disjunction_26_disjunct_2  1
    x[11,18]  OBJ       37.6
    x[11,18]  demand_18  1
    x[11,18]  c_disjunction_11_diajunct_1  25
    x[11,18]  c_disjunction_11_disjunct_2  1
    x[19,19]  demand_19  1
    x[19,19]  c_disjunction_19_diajunct_1  30
    x[19,19]  c_disjunction_19_disjunct_2  1
    x[4,19]   OBJ       59
    x[4,19]   demand_19  1
    x[4,19]   c_disjunction_4_diajunct_1  30
    x[4,19]   c_disjunction_4_disjunct_2  1
    x[29,19]  OBJ       82.6
    x[29,19]  demand_19  1
    x[29,19]  c_disjunction_29_diajunct_1  30
    x[29,19]  c_disjunction_29_disjunct_2  1
    x[20,20]  demand_20  1
    x[20,20]  c_disjunction_20_diajunct_1  28
    x[20,20]  c_disjunction_20_disjunct_2  1
    x[2,20]   OBJ       20.6
    x[2,20]   demand_20  1
    x[2,20]   c_disjunction_2_diajunct_1  28
    x[2,20]   c_disjunction_2_disjunct_2  1
    x[11,20]  OBJ       44.2
    x[11,20]  demand_20  1
    x[11,20]  c_disjunction_11_diajunct_1  28
    x[11,20]  c_disjunction_11_disjunct_2  1
    x[21,21]  demand_21  1
    x[21,21]  c_disjunction_21_diajunct_1  28
    x[21,21]  c_disjunction_21_disjunct_2  1
    x[6,21]   OBJ       47.1
    x[6,21]   demand_21  1
    x[6,21]   c_disjunction_6_diajunct_1  28
    x[6,21]   c_disjunction_6_disjunct_2  1
    x[23,21]  OBJ       48
    x[23,21]  demand_21  1
    x[23,21]  c_disjunction_23_diajunct_1  28
    x[23,21]  c_disjunction_23_disjunct_2  1
    x[22,22]  demand_22  1
    x[22,22]  c_disjunction_22_diajunct_1  20
    x[22,22]  c_disjunction_22_disjunct_2  1
    x[15,22]  OBJ       6.2
    x[15,22]  demand_22  1
    x[15,22]  c_disjunction_15_diajunct_1  20
    x[15,22]  c_disjunction_15_disjunct_2  1
    x[8,22]   OBJ       14.6
    x[8,22]   demand_22  1
    x[8,22]   c_disjunction_8_diajunct_1  20
    x[8,22]   c_disjunction_8_disjunct_2  1
    x[23,23]  demand_23  1
    x[23,23]  c_disjunction_23_diajunct_1  27
    x[23,23]  c_disjunction_23_disjunct_2  1
    x[6,23]   OBJ       36.6
    x[6,23]   demand_23  1
    x[6,23]   c_disjunction_6_diajunct_1  27
    x[6,23]   c_disjunction_6_disjunct_2  1
    x[21,23]  OBJ       46.3
    x[21,23]  demand_23  1
    x[21,23]  c_disjunction_21_diajunct_1  27
    x[21,23]  c_disjunction_21_disjunct_2  1
    x[24,24]  demand_24  1
    x[24,24]  c_disjunction_24_diajunct_1  19
    x[24,24]  c_disjunction_24_disjunct_2  1
    x[27,24]  OBJ       21.1
    x[27,24]  demand_24  1
    x[27,24]  c_disjunction_27_diajunct_1  19
    x[27,24]  c_disjunction_27_disjunct_2  1
    x[20,24]  OBJ       36.1
    x[20,24]  demand_24  1
    x[20,24]  c_disjunction_20_diajunct_1  19
    x[20,24]  c_disjunction_20_disjunct_2  1
    x[25,25]  demand_25  1
    x[25,25]  c_disjunction_25_diajunct_1  15
    x[25,25]  c_disjunction_25_disjunct_2  1
    x[30,25]  OBJ       7.9
    x[30,25]  demand_25  1
    x[30,25]  c_disjunction_30_diajunct_1  15
    x[30,25]  c_disjunction_30_disjunct_2  1
    x[16,25]  OBJ       13.9
    x[16,25]  demand_25  1
    x[16,25]  c_disjunction_16_diajunct_1  15
    x[16,25]  c_disjunction_16_disjunct_2  1
    x[26,26]  demand_26  1
    x[26,26]  c_disjunction_26_diajunct_1  26
    x[26,26]  c_disjunction_26_disjunct_2  1
    x[18,26]  OBJ       37.7
    x[18,26]  demand_26  1
    x[18,26]  c_disjunction_18_diajunct_1  26
    x[18,26]  c_disjunction_18_disjunct_2  1
    x[27,26]  OBJ       58.2
    x[27,26]  demand_26  1
    x[27,26]  c_disjunction_27_diajunct_1  26
    x[27,26]  c_disjunction_27_disjunct_2  1
    x[27,27]  demand_27  1
    x[27,27]  c_disjunction_27_diajunct_1  15
    x[27,27]  c_disjunction_27_disjunct_2  1
    x[24,27]  OBJ       16.7
    x[24,27]  demand_27  1
    x[24,27]  c_disjunction_24_diajunct_1  15
    x[24,27]  c_disjunction_24_disjunct_2  1
    x[11,27]  OBJ       26.5
    x[11,27]  demand_27  1
    x[11,27]  c_disjunction_11_diajunct_1  15
    x[11,27]  c_disjunction_11_disjunct_2  1
    x[28,28]  demand_28  1
    x[28,28]  c_disjunction_28_diajunct_1  27
    x[28,28]  c_disjunction_28_disjunct_2  1
    x[5,28]   OBJ       30.5
    x[5,28]   demand_28  1
    x[5,28]   c_disjunction_5_diajunct_1  27
    x[5,28]   c_disjunction_5_disjunct_2  1
    x[29,28]  OBJ       63.7
    x[29,28]  demand_28  1
    x[29,28]  c_disjunction_29_diajunct_1  27
    x[29,28]  c_disjunction_29_disjunct_2  1
    x[29,29]  demand_29  1
    x[29,29]  c_disjunction_29_diajunct_1  29
    x[29,29]  c_disjunction_29_disjunct_2  1
    x[1,29]   OBJ       2.4
    x[1,29]   demand_29  1
    x[1,29]   c_disjunction_1_diajunct_1  29
    x[1,29]   c_disjunction_1_disjunct_2  1
    x[5,29]   OBJ       45.8
    x[5,29]   demand_29  1
    x[5,29]   c_disjunction_5_diajunct_1  29
    x[5,29]   c_disjunction_5_disjunct_2  1
    x[30,30]  demand_30  1
    x[30,30]  c_disjunction_30_diajunct_1  34
    x[30,30]  c_disjunction_30_disjunct_2  1
    x[25,30]  OBJ       17.8
    x[25,30]  demand_30  1
    x[25,30]  c_disjunction_25_diajunct_1  34
    x[25,30]  c_disjunction_25_disjunct_2  1
    x[16,30]  OBJ       47.5
    x[16,30]  demand_30  1
    x[16,30]  c_disjunction_16_diajunct_1  34
    x[16,30]  c_disjunction_16_disjunct_2  1
    MARKER    'MARKER'                 'INTEND'
RHS
    RHS1      demand_1  1
    RHS1      demand_2  1
    RHS1      demand_3  1
    RHS1      demand_4  1
    RHS1      demand_5  1
    RHS1      demand_6  1
    RHS1      demand_7  1
    RHS1      demand_8  1
    RHS1      demand_9  1
    RHS1      demand_10  1
    RHS1      demand_11  1
    RHS1      demand_12  1
    RHS1      demand_13  1
    RHS1      demand_14  1
    RHS1      demand_15  1
    RHS1      demand_16  1
    RHS1      demand_17  1
    RHS1      demand_18  1
    RHS1      demand_19  1
    RHS1      demand_20  1
    RHS1      demand_21  1
    RHS1      demand_22  1
    RHS1      demand_23  1
    RHS1      demand_24  1
    RHS1      demand_25  1
    RHS1      demand_26  1
    RHS1      demand_27  1
    RHS1      demand_28  1
    RHS1      demand_29  1
    RHS1      demand_30  1
    RHS1      c_disjunction_1_disjunct_2  2
    RHS1      R32       1
    RHS1      c_disjunction_2_disjunct_2  4
    RHS1      R35       1
    RHS1      c_disjunction_3_disjunct_2  4
    RHS1      R38       1
    RHS1      c_disjunction_4_disjunct_2  2
    RHS1      R41       1
    RHS1      c_disjunction_5_disjunct_2  4
    RHS1      R44       1
    RHS1      c_disjunction_6_disjunct_2  3
    RHS1      R47       1
    RHS1      c_disjunction_7_disjunct_2  4
    RHS1      R50       1
    RHS1      c_disjunction_8_disjunct_2  2
    RHS1      R53       1
    RHS1      c_disjunction_9_disjunct_2  2
    RHS1      R56       1
    RHS1      c_disjunction_10_disjunct_2  3
    RHS1      R59       1
    RHS1      c_disjunction_11_disjunct_2  4
    RHS1      R62       1
    RHS1      c_disjunction_12_disjunct_2  1
    RHS1      R65       1
    RHS1      c_disjunction_13_disjunct_2  2
    RHS1      R68       1
    RHS1      c_disjunction_14_disjunct_2  2
    RHS1      R71       1
    RHS1      c_disjunction_15_disjunct_2  5
    RHS1      R74       1
    RHS1      c_disjunction_16_disjunct_2  4
    RHS1      R77       1
    RHS1      c_disjunction_17_disjunct_2  1
    RHS1      R80       1
    RHS1      c_disjunction_18_disjunct_2  3
    RHS1      R83       1
    RHS1      c_disjunction_19_disjunct_2  2
    RHS1      R86       1
    RHS1      c_disjunction_20_disjunct_2  5
    RHS1      R89       1
    RHS1      c_disjunction_21_disjunct_2  2
    RHS1      R92       1
    RHS1      c_disjunction_22_disjunct_2  5
    RHS1      R95       1
    RHS1      c_disjunction_23_disjunct_2  2
    RHS1      R98       1
    RHS1      c_disjunction_24_disjunct_2  2
    RHS1      R101      1
    RHS1      c_disjunction_25_disjunct_2  4
    RHS1      R104      1
    RHS1      c_disjunction_26_disjunct_2  2
    RHS1      R107      1
    RHS1      c_disjunction_27_disjunct_2  3
    RHS1      R110      1
    RHS1      c_disjunction_28_disjunct_2  2
    RHS1      R113      1
    RHS1      c_disjunction_29_disjunct_2  5
    RHS1      R116      1
    RHS1      c_disjunction_30_disjunct_2  4
    RHS1      R119      1
BOUNDS
 BV BND1      ind_disjunction_1_disjunct_1
 BV BND1      ind_disjunction_2_disjunct_1
 BV BND1      ind_disjunction_3_disjunct_1
 BV BND1      ind_disjunction_4_disjunct_1
 BV BND1      ind_disjunction_5_disjunct_1
 BV BND1      ind_disjunction_6_disjunct_1
 BV BND1      ind_disjunction_7_disjunct_1
 BV BND1      ind_disjunction_8_disjunct_1
 BV BND1      ind_disjunction_9_disjunct_1
 BV BND1      ind_disjunction_10_disjunct_1
 BV BND1      ind_disjunction_11_disjunct_1
 BV BND1      ind_disjunction_12_disjunct_1
 BV BND1      ind_disjunction_13_disjunct_1
 BV BND1      ind_disjunction_14_disjunct_1
 BV BND1      ind_disjunction_15_disjunct_1
 BV BND1      ind_disjunction_16_disjunct_1
 BV BND1      ind_disjunction_17_disjunct_1
 BV BND1      ind_disjunction_18_disjunct_1
 BV BND1      ind_disjunction_19_disjunct_1
 BV BND1      ind_disjunction_20_disjunct_1
 BV BND1      ind_disjunction_21_disjunct_1
 BV BND1      ind_disjunction_22_disjunct_1
 BV BND1      ind_disjunction_23_disjunct_1
 BV BND1      ind_disjunction_24_disjunct_1
 BV BND1      ind_disjunction_25_disjunct_1
 BV BND1      ind_disjunction_26_disjunct_1
 BV BND1      ind_disjunction_27_disjunct_1
 BV BND1      ind_disjunction_28_disjunct_1
 BV BND1      ind_disjunction_29_disjunct_1
 BV BND1      ind_disjunction_30_disjunct_1
 BV BND1      ind_disjunction_1_disjunct_2
 BV BND1      ind_disjunction_2_disjunct_2
 BV BND1      ind_disjunction_3_disjunct_2
 BV BND1      ind_disjunction_4_disjunct_2
 BV BND1      ind_disjunction_5_disjunct_2
 BV BND1      ind_disjunction_6_disjunct_2
 BV BND1      ind_disjunction_7_disjunct_2
 BV BND1      ind_disjunction_8_disjunct_2
 BV BND1      ind_disjunction_9_disjunct_2
 BV BND1      ind_disjunction_10_disjunct_2
 BV BND1      ind_disjunction_11_disjunct_2
 BV BND1      ind_disjunction_12_disjunct_2
 BV BND1      ind_disjunction_13_disjunct_2
 BV BND1      ind_disjunction_14_disjunct_2
 BV BND1      ind_disjunction_15_disjunct_2
 BV BND1      ind_disjunction_16_disjunct_2
 BV BND1      ind_disjunction_17_disjunct_2
 BV BND1      ind_disjunction_18_disjunct_2
 BV BND1      ind_disjunction_19_disjunct_2
 BV BND1      ind_disjunction_20_disjunct_2
 BV BND1      ind_disjunction_21_disjunct_2
 BV BND1      ind_disjunction_22_disjunct_2
 BV BND1      ind_disjunction_23_disjunct_2
 BV BND1      ind_disjunction_24_disjunct_2
 BV BND1      ind_disjunction_25_disjunct_2
 BV BND1      ind_disjunction_26_disjunct_2
 BV BND1      ind_disjunction_27_disjunct_2
 BV BND1      ind_disjunction_28_disjunct_2
 BV BND1      ind_disjunction_29_disjunct_2
 BV BND1      ind_disjunction_30_disjunct_2
 BV BND1      x[1,1]  
 BV BND1      x[29,1] 
 BV BND1      x[5,1]  
 BV BND1      x[2,2]  
 BV BND1      x[20,2] 
 BV BND1      x[13,2] 
 BV BND1      x[3,3]  
 BV BND1      x[10,3] 
 BV BND1      x[7,3]  
 BV BND1      x[4,4]  
 BV BND1      x[19,4] 
 BV BND1      x[16,4] 
 BV BND1      x[5,5]  
 BV BND1      x[28,5] 
 BV BND1      x[29,5] 
 BV BND1      x[6,6]  
 BV BND1      x[22,6] 
 BV BND1      x[15,6] 
 BV BND1      x[7,7]  
 BV BND1      x[10,7] 
 BV BND1      x[3,7]  
 BV BND1      x[8,8]  
 BV BND1      x[22,8] 
 BV BND1      x[15,8] 
 BV BND1      x[9,9]  
 BV BND1      x[2,9]  
 BV BND1      x[20,9] 
 BV BND1      x[10,10]
 BV BND1      x[3,10] 
 BV BND1      x[7,10] 
 BV BND1      x[11,11]
 BV BND1      x[18,11]
 BV BND1      x[20,11]
 BV BND1      x[12,12]
 BV BND1      x[3,12] 
 BV BND1      x[7,12] 
 BV BND1      x[13,13]
 BV BND1      x[2,13] 
 BV BND1      x[9,13] 
 BV BND1      x[14,14]
 BV BND1      x[15,14]
 BV BND1      x[22,14]
 BV BND1      x[15,15]
 BV BND1      x[22,15]
 BV BND1      x[14,15]
 BV BND1      x[16,16]
 BV BND1      x[25,16]
 BV BND1      x[30,16]
 BV BND1      x[17,17]
 BV BND1      x[25,17]
 BV BND1      x[30,17]
 BV BND1      x[18,18]
 BV BND1      x[26,18]
 BV BND1      x[11,18]
 BV BND1      x[19,19]
 BV BND1      x[4,19] 
 BV BND1      x[29,19]
 BV BND1      x[20,20]
 BV BND1      x[2,20] 
 BV BND1      x[11,20]
 BV BND1      x[21,21]
 BV BND1      x[6,21] 
 BV BND1      x[23,21]
 BV BND1      x[22,22]
 BV BND1      x[15,22]
 BV BND1      x[8,22] 
 BV BND1      x[23,23]
 BV BND1      x[6,23] 
 BV BND1      x[21,23]
 BV BND1      x[24,24]
 BV BND1      x[27,24]
 BV BND1      x[20,24]
 BV BND1      x[25,25]
 BV BND1      x[30,25]
 BV BND1      x[16,25]
 BV BND1      x[26,26]
 BV BND1      x[18,26]
 BV BND1      x[27,26]
 BV BND1      x[27,27]
 BV BND1      x[24,27]
 BV BND1      x[11,27]
 BV BND1      x[28,28]
 BV BND1      x[5,28] 
 BV BND1      x[29,28]
 BV BND1      x[29,29]
 BV BND1      x[1,29] 
 BV BND1      x[5,29] 
 BV BND1      x[30,30]
 BV BND1      x[25,30]
 BV BND1      x[16,30]
ENDATA
